p cnf 217 948
-1 -33 0
-2 -33 0
1 2 33 0
1 2 -34 0
-1 -2 -34 0
-1 2 34 0
1 -2 34 0
33 -35 0
-3 -35 0
3 -33 35 0
3 -33 -36 0
-3 33 -36 0
3 33 36 0
-3 -33 36 0
35 -37 0
-4 -37 0
4 -35 37 0
4 -35 -38 0
-4 35 -38 0
4 35 38 0
-4 -35 38 0
37 -39 0
-5 -39 0
5 -37 39 0
5 -37 -40 0
-5 37 -40 0
5 37 40 0
-5 -37 40 0
39 -41 0
-6 -41 0
6 -39 41 0
6 -39 -42 0
-6 39 -42 0
6 39 42 0
-6 -39 42 0
41 -43 0
-7 -43 0
7 -41 43 0
7 -41 -44 0
-7 41 -44 0
7 41 44 0
-7 -41 44 0
43 -45 0
-8 -45 0
8 -43 45 0
8 -43 -46 0
-8 43 -46 0
8 43 46 0
-8 -43 46 0
3 -47 0
1 -47 0
-1 -3 47 0
-1 -3 -48 0
1 3 -48 0
1 -3 48 0
-1 3 48 0
-2 -4 49 0
-4 -47 49 0
-2 -47 49 0
2 4 -49 0
4 47 -49 0
2 47 -49 0
4 -49 -50 0
2 -49 -50 0
47 -49 -50 0
-4 49 50 0
-2 49 50 0
-47 49 50 0
-2 -4 -47 50 0
2 4 47 -50 0
-3 -5 51 0
-5 -49 51 0
-3 -49 51 0
3 5 -51 0
5 49 -51 0
3 49 -51 0
5 -51 -52 0
3 -51 -52 0
49 -51 -52 0
-5 51 52 0
-3 51 52 0
-49 51 52 0
-3 -5 -49 52 0
3 5 49 -52 0
-4 -6 53 0
-6 -51 53 0
-4 -51 53 0
4 6 -53 0
6 51 -53 0
4 51 -53 0
6 -53 -54 0
4 -53 -54 0
51 -53 -54 0
-6 53 54 0
-4 53 54 0
-51 53 54 0
-4 -6 -51 54 0
4 6 51 -54 0
-5 -7 55 0
-7 -53 55 0
-5 -53 55 0
5 7 -55 0
7 53 -55 0
5 53 -55 0
7 -55 -56 0
5 -55 -56 0
53 -55 -56 0
-7 55 56 0
-5 55 56 0
-53 55 56 0
-5 -7 -53 56 0
5 7 53 -56 0
-6 -8 57 0
-8 -55 57 0
-6 -55 57 0
6 8 -57 0
8 55 -57 0
6 55 -57 0
8 -57 -58 0
6 -57 -58 0
55 -57 -58 0
-8 57 58 0
-6 57 58 0
-55 57 58 0
-6 -8 -55 58 0
6 8 55 -58 0
7 -59 0
57 -59 0
-7 -57 59 0
-7 -57 -60 0
7 57 -60 0
-7 57 60 0
7 -57 60 0
8 -61 0
59 -61 0
-8 -59 61 0
-8 -59 -62 0
8 59 -62 0
-8 59 62 0
8 -59 62 0
50 -63 0
1 -63 0
-1 -50 63 0
-1 -50 -64 0
1 50 -64 0
1 -50 64 0
-1 50 64 0
-2 -52 65 0
-52 -63 65 0
-2 -63 65 0
2 52 -65 0
52 63 -65 0
2 63 -65 0
52 -65 -66 0
2 -65 -66 0
63 -65 -66 0
-52 65 66 0
-2 65 66 0
-63 65 66 0
-2 -52 -63 66 0
2 52 63 -66 0
-3 -54 67 0
-54 -65 67 0
-3 -65 67 0
3 54 -67 0
54 65 -67 0
3 65 -67 0
54 -67 -68 0
3 -67 -68 0
65 -67 -68 0
-54 67 68 0
-3 67 68 0
-65 67 68 0
-3 -54 -65 68 0
3 54 65 -68 0
-4 -56 69 0
-56 -67 69 0
-4 -67 69 0
4 56 -69 0
56 67 -69 0
4 67 -69 0
56 -69 -70 0
4 -69 -70 0
67 -69 -70 0
-56 69 70 0
-4 69 70 0
-67 69 70 0
-4 -56 -67 70 0
4 56 67 -70 0
-5 -58 71 0
-58 -69 71 0
-5 -69 71 0
5 58 -71 0
58 69 -71 0
5 69 -71 0
58 -71 -72 0
5 -71 -72 0
69 -71 -72 0
-58 71 72 0
-5 71 72 0
-69 71 72 0
-5 -58 -69 72 0
5 58 69 -72 0
-6 -60 73 0
-60 -71 73 0
-6 -71 73 0
6 60 -73 0
60 71 -73 0
6 71 -73 0
60 -73 -74 0
6 -73 -74 0
71 -73 -74 0
-60 73 74 0
-6 73 74 0
-71 73 74 0
-6 -60 -71 74 0
6 60 71 -74 0
-7 -62 75 0
-62 -73 75 0
-7 -73 75 0
7 62 -75 0
62 73 -75 0
7 73 -75 0
62 -75 -76 0
7 -75 -76 0
73 -75 -76 0
-62 75 76 0
-7 75 76 0
-73 75 76 0
-7 -62 -73 76 0
7 62 73 -76 0
-8 -61 77 0
-61 -75 77 0
-8 -75 77 0
8 61 -77 0
61 75 -77 0
8 75 -77 0
61 -77 -78 0
8 -77 -78 0
75 -77 -78 0
-61 77 78 0
-8 77 78 0
-75 77 78 0
-8 -61 -75 78 0
8 61 75 -78 0
68 -79 0
1 -79 0
-1 -68 79 0
-1 -68 -80 0
1 68 -80 0
1 -68 80 0
-1 68 80 0
-2 -70 81 0
-70 -79 81 0
-2 -79 81 0
2 70 -81 0
70 79 -81 0
2 79 -81 0
70 -81 -82 0
2 -81 -82 0
79 -81 -82 0
-70 81 82 0
-2 81 82 0
-79 81 82 0
-2 -70 -79 82 0
2 70 79 -82 0
-3 -72 83 0
-72 -81 83 0
-3 -81 83 0
3 72 -83 0
72 81 -83 0
3 81 -83 0
72 -83 -84 0
3 -83 -84 0
81 -83 -84 0
-72 83 84 0
-3 83 84 0
-81 83 84 0
-3 -72 -81 84 0
3 72 81 -84 0
-4 -74 85 0
-74 -83 85 0
-4 -83 85 0
4 74 -85 0
74 83 -85 0
4 83 -85 0
74 -85 -86 0
4 -85 -86 0
83 -85 -86 0
-74 85 86 0
-4 85 86 0
-83 85 86 0
-4 -74 -83 86 0
4 74 83 -86 0
-5 -76 87 0
-76 -85 87 0
-5 -85 87 0
5 76 -87 0
76 85 -87 0
5 85 -87 0
76 -87 -88 0
5 -87 -88 0
85 -87 -88 0
-76 87 88 0
-5 87 88 0
-85 87 88 0
-5 -76 -85 88 0
5 76 85 -88 0
-6 -78 89 0
-78 -87 89 0
-6 -87 89 0
6 78 -89 0
78 87 -89 0
6 87 -89 0
78 -89 -90 0
6 -89 -90 0
87 -89 -90 0
-78 89 90 0
-6 89 90 0
-87 89 90 0
-6 -78 -87 90 0
6 78 87 -90 0
-7 -77 91 0
-77 -89 91 0
-7 -89 91 0
7 77 -91 0
77 89 -91 0
7 89 -91 0
77 -91 -92 0
7 -91 -92 0
89 -91 -92 0
-77 91 92 0
-7 91 92 0
-89 91 92 0
-7 -77 -89 92 0
7 77 89 -92 0
8 -93 0
91 -93 0
-8 -91 93 0
-8 -91 -94 0
8 91 -94 0
-8 91 94 0
8 -91 94 0
-1 -95 0
-2 -95 0
1 2 95 0
1 2 -96 0
-1 -2 -96 0
-1 2 96 0
1 -2 96 0
95 -97 0
-48 -97 0
48 -95 97 0
48 -95 -98 0
-48 95 -98 0
48 95 98 0
-48 -95 98 0
97 -99 0
-64 -99 0
64 -97 99 0
64 -97 -100 0
-64 97 -100 0
64 97 100 0
-64 -97 100 0
99 -101 0
-66 -101 0
66 -99 101 0
66 -99 -102 0
-66 99 -102 0
66 99 102 0
-66 -99 102 0
101 -103 0
-80 -103 0
80 -101 103 0
80 -101 -104 0
-80 101 -104 0
80 101 104 0
-80 -101 104 0
103 -105 0
-82 -105 0
82 -103 105 0
82 -103 -106 0
-82 103 -106 0
82 103 106 0
-82 -103 106 0
105 -107 0
-84 -107 0
84 -105 107 0
84 -105 -108 0
-84 105 -108 0
84 105 108 0
-84 -105 108 0
107 -109 0
-86 -109 0
86 -107 109 0
86 -107 -110 0
-86 107 -110 0
86 107 110 0
-86 -107 110 0
109 -111 0
-88 -111 0
88 -109 111 0
88 -109 -112 0
-88 109 -112 0
88 109 112 0
-88 -109 112 0
111 -113 0
-90 -113 0
90 -111 113 0
90 -111 -114 0
-90 111 -114 0
90 111 114 0
-90 -111 114 0
113 -115 0
-92 -115 0
92 -113 115 0
92 -113 -116 0
-92 113 -116 0
92 113 116 0
-92 -113 116 0
115 -117 0
-94 -117 0
94 -115 117 0
94 -115 -118 0
-94 115 -118 0
94 115 118 0
-94 -115 118 0
117 -119 0
-93 -119 0
93 -117 119 0
93 -117 -120 0
-93 117 -120 0
93 117 120 0
-93 -117 120 0
-9 -121 0
-10 -121 0
9 10 121 0
9 10 -122 0
-9 -10 -122 0
-9 10 122 0
9 -10 122 0
121 -123 0
-11 -123 0
11 -121 123 0
11 -121 -124 0
-11 121 -124 0
11 121 124 0
-11 -121 124 0
123 -125 0
-12 -125 0
12 -123 125 0
12 -123 -126 0
-12 123 -126 0
12 123 126 0
-12 -123 126 0
125 -127 0
-13 -127 0
13 -125 127 0
13 -125 -128 0
-13 125 -128 0
13 125 128 0
-13 -125 128 0
127 -129 0
-14 -129 0
14 -127 129 0
14 -127 -130 0
-14 127 -130 0
14 127 130 0
-14 -127 130 0
129 -131 0
-15 -131 0
15 -129 131 0
15 -129 -132 0
-15 129 -132 0
15 129 132 0
-15 -129 132 0
131 -133 0
-16 -133 0
16 -131 133 0
16 -131 -134 0
-16 131 -134 0
16 131 134 0
-16 -131 134 0
10 -135 0
9 -135 0
-9 -10 135 0
-9 -10 -136 0
9 10 -136 0
9 -10 136 0
-9 10 136 0
-10 -11 137 0
-11 -135 137 0
-10 -135 137 0
10 11 -137 0
11 135 -137 0
10 135 -137 0
11 -137 -138 0
10 -137 -138 0
135 -137 -138 0
-11 137 138 0
-10 137 138 0
-135 137 138 0
-10 -11 -135 138 0
10 11 135 -138 0
-11 -12 139 0
-12 -137 139 0
-11 -137 139 0
11 12 -139 0
12 137 -139 0
11 137 -139 0
12 -139 -140 0
11 -139 -140 0
137 -139 -140 0
-12 139 140 0
-11 139 140 0
-137 139 140 0
-11 -12 -137 140 0
11 12 137 -140 0
-12 -13 141 0
-13 -139 141 0
-12 -139 141 0
12 13 -141 0
13 139 -141 0
12 139 -141 0
13 -141 -142 0
12 -141 -142 0
139 -141 -142 0
-13 141 142 0
-12 141 142 0
-139 141 142 0
-12 -13 -139 142 0
12 13 139 -142 0
-13 -14 143 0
-14 -141 143 0
-13 -141 143 0
13 14 -143 0
14 141 -143 0
13 141 -143 0
14 -143 -144 0
13 -143 -144 0
141 -143 -144 0
-14 143 144 0
-13 143 144 0
-141 143 144 0
-13 -14 -141 144 0
13 14 141 -144 0
-14 -15 145 0
-15 -143 145 0
-14 -143 145 0
14 15 -145 0
15 143 -145 0
14 143 -145 0
15 -145 -146 0
14 -145 -146 0
143 -145 -146 0
-15 145 146 0
-14 145 146 0
-143 145 146 0
-14 -15 -143 146 0
14 15 143 -146 0
-15 -16 147 0
-16 -145 147 0
-15 -145 147 0
15 16 -147 0
16 145 -147 0
15 145 -147 0
16 -147 -148 0
15 -147 -148 0
145 -147 -148 0
-16 147 148 0
-15 147 148 0
-145 147 148 0
-15 -16 -145 148 0
15 16 145 -148 0
16 -149 0
147 -149 0
-16 -147 149 0
-16 -147 -150 0
16 147 -150 0
-16 147 150 0
16 -147 150 0
142 -151 0
9 -151 0
-9 -142 151 0
-9 -142 -152 0
9 142 -152 0
9 -142 152 0
-9 142 152 0
-10 -144 153 0
-144 -151 153 0
-10 -151 153 0
10 144 -153 0
144 151 -153 0
10 151 -153 0
144 -153 -154 0
10 -153 -154 0
151 -153 -154 0
-144 153 154 0
-10 153 154 0
-151 153 154 0
-10 -144 -151 154 0
10 144 151 -154 0
-11 -146 155 0
-146 -153 155 0
-11 -153 155 0
11 146 -155 0
146 153 -155 0
11 153 -155 0
146 -155 -156 0
11 -155 -156 0
153 -155 -156 0
-146 155 156 0
-11 155 156 0
-153 155 156 0
-11 -146 -153 156 0
11 146 153 -156 0
-12 -148 157 0
-148 -155 157 0
-12 -155 157 0
12 148 -157 0
148 155 -157 0
12 155 -157 0
148 -157 -158 0
12 -157 -158 0
155 -157 -158 0
-148 157 158 0
-12 157 158 0
-155 157 158 0
-12 -148 -155 158 0
12 148 155 -158 0
-13 -150 159 0
-150 -157 159 0
-13 -157 159 0
13 150 -159 0
150 157 -159 0
13 157 -159 0
150 -159 -160 0
13 -159 -160 0
157 -159 -160 0
-150 159 160 0
-13 159 160 0
-157 159 160 0
-13 -150 -157 160 0
13 150 157 -160 0
-14 -149 161 0
-149 -159 161 0
-14 -159 161 0
14 149 -161 0
149 159 -161 0
14 159 -161 0
149 -161 -162 0
14 -161 -162 0
159 -161 -162 0
-149 161 162 0
-14 161 162 0
-159 161 162 0
-14 -149 -159 162 0
14 149 159 -162 0
15 -163 0
161 -163 0
-15 -161 163 0
-15 -161 -164 0
15 161 -164 0
-15 161 164 0
15 -161 164 0
16 -165 0
163 -165 0
-16 -163 165 0
-16 -163 -166 0
16 163 -166 0
-16 163 166 0
16 -163 166 0
-9 -167 0
-136 -167 0
9 136 167 0
9 136 -168 0
-9 -136 -168 0
-9 136 168 0
9 -136 168 0
167 -169 0
-138 -169 0
138 -167 169 0
138 -167 -170 0
-138 167 -170 0
138 167 170 0
-138 -167 170 0
169 -171 0
-140 -171 0
140 -169 171 0
140 -169 -172 0
-140 169 -172 0
140 169 172 0
-140 -169 172 0
171 -173 0
-152 -173 0
152 -171 173 0
152 -171 -174 0
-152 171 -174 0
152 171 174 0
-152 -171 174 0
173 -175 0
-154 -175 0
154 -173 175 0
154 -173 -176 0
-154 173 -176 0
154 173 176 0
-154 -173 176 0
175 -177 0
-156 -177 0
156 -175 177 0
156 -175 -178 0
-156 175 -178 0
156 175 178 0
-156 -175 178 0
177 -179 0
-158 -179 0
158 -177 179 0
158 -177 -180 0
-158 177 -180 0
158 177 180 0
-158 -177 180 0
179 -181 0
-160 -181 0
160 -179 181 0
160 -179 -182 0
-160 179 -182 0
160 179 182 0
-160 -179 182 0
181 -183 0
-162 -183 0
162 -181 183 0
162 -181 -184 0
-162 181 -184 0
162 181 184 0
-162 -181 184 0
183 -185 0
-164 -185 0
164 -183 185 0
164 -183 -186 0
-164 183 -186 0
164 183 186 0
-164 -183 186 0
185 -187 0
-166 -187 0
166 -185 187 0
166 -185 -188 0
-166 185 -188 0
166 185 188 0
-166 -185 188 0
187 -189 0
-165 -189 0
165 -187 189 0
165 -187 -190 0
-165 187 -190 0
165 187 190 0
-165 -187 190 0
2 -191 0
9 -191 0
-2 -9 191 0
-2 -9 -192 0
2 9 -192 0
-2 9 192 0
2 -9 192 0
-48 -136 193 0
-48 -191 193 0
-136 -191 193 0
48 136 -193 0
48 191 -193 0
136 191 -193 0
48 -193 -194 0
136 -193 -194 0
191 -193 -194 0
-48 193 194 0
-136 193 194 0
-191 193 194 0
-48 -136 -191 194 0
48 136 191 -194 0
-64 -138 195 0
-64 -193 195 0
-138 -193 195 0
64 138 -195 0
64 193 -195 0
138 193 -195 0
64 -195 -196 0
138 -195 -196 0
193 -195 -196 0
-64 195 196 0
-138 195 196 0
-193 195 196 0
-64 -138 -193 196 0
64 138 193 -196 0
-66 -140 197 0
-66 -195 197 0
-140 -195 197 0
66 140 -197 0
66 195 -197 0
140 195 -197 0
66 -197 -198 0
140 -197 -198 0
195 -197 -198 0
-66 197 198 0
-140 197 198 0
-195 197 198 0
-66 -140 -195 198 0
66 140 195 -198 0
-80 -152 199 0
-80 -197 199 0
-152 -197 199 0
80 152 -199 0
80 197 -199 0
152 197 -199 0
80 -199 -200 0
152 -199 -200 0
197 -199 -200 0
-80 199 200 0
-152 199 200 0
-197 199 200 0
-80 -152 -197 200 0
80 152 197 -200 0
-82 -154 201 0
-82 -199 201 0
-154 -199 201 0
82 154 -201 0
82 199 -201 0
154 199 -201 0
82 -201 -202 0
154 -201 -202 0
199 -201 -202 0
-82 201 202 0
-154 201 202 0
-199 201 202 0
-82 -154 -199 202 0
82 154 199 -202 0
-84 -156 203 0
-84 -201 203 0
-156 -201 203 0
84 156 -203 0
84 201 -203 0
156 201 -203 0
84 -203 -204 0
156 -203 -204 0
201 -203 -204 0
-84 203 204 0
-156 203 204 0
-201 203 204 0
-84 -156 -201 204 0
84 156 201 -204 0
-86 -158 205 0
-86 -203 205 0
-158 -203 205 0
86 158 -205 0
86 203 -205 0
158 203 -205 0
86 -205 -206 0
158 -205 -206 0
203 -205 -206 0
-86 205 206 0
-158 205 206 0
-203 205 206 0
-86 -158 -203 206 0
86 158 203 -206 0
-88 -160 207 0
-88 -205 207 0
-160 -205 207 0
88 160 -207 0
88 205 -207 0
160 205 -207 0
88 -207 -208 0
160 -207 -208 0
205 -207 -208 0
-88 207 208 0
-160 207 208 0
-205 207 208 0
-88 -160 -205 208 0
88 160 205 -208 0
-90 -162 209 0
-90 -207 209 0
-162 -207 209 0
90 162 -209 0
90 207 -209 0
162 207 -209 0
90 -209 -210 0
162 -209 -210 0
207 -209 -210 0
-90 209 210 0
-162 209 210 0
-207 209 210 0
-90 -162 -207 210 0
90 162 207 -210 0
-92 -164 211 0
-92 -209 211 0
-164 -209 211 0
92 164 -211 0
92 209 -211 0
164 209 -211 0
92 -211 -212 0
164 -211 -212 0
209 -211 -212 0
-92 211 212 0
-164 211 212 0
-209 211 212 0
-92 -164 -209 212 0
92 164 209 -212 0
-94 -166 213 0
-94 -211 213 0
-166 -211 213 0
94 166 -213 0
94 211 -213 0
166 211 -213 0
94 -213 -214 0
166 -213 -214 0
211 -213 -214 0
-94 213 214 0
-166 213 214 0
-211 213 214 0
-94 -166 -211 214 0
94 166 211 -214 0
-93 -165 215 0
-93 -213 215 0
-165 -213 215 0
93 165 -215 0
93 213 -215 0
165 213 -215 0
93 -215 -216 0
165 -215 -216 0
213 -215 -216 0
-93 215 216 0
-165 215 216 0
-213 215 216 0
-93 -165 -213 216 0
93 165 213 -216 0
1 -217 0
-192 -217 0
-194 -217 0
-196 -217 0
198 -217 0
-200 -217 0
202 -217 0
204 -217 0
-206 -217 0
-208 -217 0
-210 -217 0
-212 -217 0
-214 -217 0
-215 -217 0
-216 -217 0
-1 192 194 196 -198 200 -202 -204 206 208 210 212 214 215 216 217 0
217 0
c main::$tmp::return_value_nondet_char!0@1#1 17 18 19 20 21 22 23 24
c symex::nondet1 9 10 11 12 13 14 15 16
c symex::nondet0 1 2 3 4 5 6 7 8
c main::$tmp::return_value_nondet_char$0!0@1#2 9 10 11 12 13 14 15 16
c __CPROVER_rounding_mode!0#1 FALSE FALSE FALSE FALSE FALSE FALSE FALSE FALSE FALSE FALSE FALSE FALSE FALSE FALSE FALSE FALSE FALSE FALSE FALSE FALSE FALSE FALSE FALSE FALSE FALSE FALSE FALSE FALSE FALSE FALSE FALSE FALSE
c main::$tmp::return_value_nondet_char$0!0@1#1 25 26 27 28 29 30 31 32
c __CPROVER_memory_leak#1 FALSE FALSE FALSE FALSE FALSE FALSE FALSE FALSE FALSE FALSE FALSE FALSE FALSE FALSE FALSE FALSE FALSE FALSE FALSE FALSE FALSE FALSE FALSE FALSE FALSE FALSE FALSE FALSE FALSE FALSE FALSE FALSE FALSE FALSE FALSE FALSE FALSE FALSE FALSE FALSE FALSE FALSE FALSE FALSE FALSE FALSE FALSE FALSE FALSE FALSE FALSE FALSE FALSE FALSE FALSE FALSE FALSE FALSE FALSE FALSE FALSE FALSE FALSE FALSE
c __CPROVER_max_malloc_size#1 FALSE FALSE FALSE FALSE FALSE FALSE FALSE FALSE FALSE FALSE FALSE FALSE FALSE FALSE FALSE FALSE FALSE FALSE FALSE FALSE FALSE FALSE FALSE FALSE FALSE FALSE FALSE FALSE FALSE FALSE FALSE FALSE FALSE FALSE FALSE FALSE FALSE FALSE FALSE FALSE FALSE FALSE FALSE FALSE FALSE FALSE FALSE FALSE FALSE FALSE FALSE FALSE FALSE FALSE FALSE TRUE FALSE FALSE FALSE FALSE FALSE FALSE FALSE FALSE
c __CPROVER_deallocated#1 FALSE FALSE FALSE FALSE FALSE FALSE FALSE FALSE FALSE FALSE FALSE FALSE FALSE FALSE FALSE FALSE FALSE FALSE FALSE FALSE FALSE FALSE FALSE FALSE FALSE FALSE FALSE FALSE FALSE FALSE FALSE FALSE FALSE FALSE FALSE FALSE FALSE FALSE FALSE FALSE FALSE FALSE FALSE FALSE FALSE FALSE FALSE FALSE FALSE FALSE FALSE FALSE FALSE FALSE FALSE FALSE FALSE FALSE FALSE FALSE FALSE FALSE FALSE FALSE
c main::$tmp::return_value_nondet_char!0@1#2 1 2 3 4 5 6 7 8
c __CPROVER_dead_object#1 FALSE FALSE FALSE FALSE FALSE FALSE FALSE FALSE FALSE FALSE FALSE FALSE FALSE FALSE FALSE FALSE FALSE FALSE FALSE FALSE FALSE FALSE FALSE FALSE FALSE FALSE FALSE FALSE FALSE FALSE FALSE FALSE FALSE FALSE FALSE FALSE FALSE FALSE FALSE FALSE FALSE FALSE FALSE FALSE FALSE FALSE FALSE FALSE FALSE FALSE FALSE FALSE FALSE FALSE FALSE FALSE FALSE FALSE FALSE FALSE FALSE FALSE FALSE FALSE
